1872.62 0
0 50 3 158 81 120 9 103 136 35 34 169 129 79 0
0 28 111 116 196 1 101 190 182 52 167 27 0
0 76 80 24 165 55 139 23 186 56 152 53 112 95 99 104 0
0 154 195 109 150 163 54 130 4 197 133 115 2 0
0 147 166 153 106 82 60 118 5 93 98 96 0
0 137 87 151 59 84 125 45 174 46 36 143 124 8 199 0
0 89 10 189 108 131 66 65 71 161 33 185 0
0 198 72 73 171 75 22 41 43 14 119 192 100 37 92 117 0
0 7 123 168 47 49 64 122 157 102 177 179 26 0
0 69 162 31 70 30 128 160 32 90 62 148 127 0
0 194 48 19 107 175 11 181 63 126 159 88 146 0
0 138 149 155 74 13 183 6 83 61 191 141 16 0
0 132 176 51 20 188 135 164 78 121 29 170 39 110 0
0 156 180 187 67 25 134 68 77 184 12 0
0 178 145 15 57 97 193 38 140 86 113 17 173 94 0
0 18 114 85 91 44 142 42 172 144 21 40 58 105 0